
  32    4
  10   10   10   10

   0   0   0   0   0   7 2 3 4 5 7 8 10 
   7  10  10  10  10   3 17 11 6 
   2  10  10  10  10   4 14 13 12 11 
   1  10  10  10  10   4 17 13 11 9 
   3  10  10  10  10   2 11 6 
   3  10  10  10  10   5 31 16 15 14 13 
   1  10  10  10  10   2 14 11 
   2  10  10  10  10   5 31 19 18 17 16 
   3  10  10  10  10   5 31 21 18 16 15 
  10  10  10  10  10   4 19 18 15 13 
   3  10  10  10  10   4 31 23 19 16 
   6  10  10  10  10   4 22 21 20 15 
   8  10  10  10  10   6 30 27 26 23 22 21 
   1  10  10  10  10   2 23 18 
   9  10  10  10  10   5 30 29 28 27 23 
   1  10  10  10  10   4 27 24 22 20 
   2  10  10  10  10   4 29 27 23 20 
   1  10  10  10  10   4 28 27 24 20 
   7  10  10  10  10   3 30 21 20 
   9  10  10  10  10   2 26 25 
   9  10  10  10  10   2 28 25 
   4  10  10  10  10   2 29 25 
   2  10  10  10  10   1 24 
   6  10  10  10  10   1 25 
   2  10  10  10  10   1 32
   2  10  10  10  10   1 32
   4  10  10  10  10   1 32
   2  10  10  10  10   1 32
   5  10  10  10  10   1 32
   4  10  10  10  10   1 32
   5  10  10  10  10   1 32
   0   0   0   0   0   0 
